&CONTROL
  calculation = 'cp',
  restart_mode = 'restart',
  ndr = 53,
  ndw = 54,
  nstep  = 2000,
  iprint = 50,
  isave  = 200,
  tstress = .TRUE.,
  tprnfor = .TRUE.,
  dt    = 8,
  etot_conv_thr = 1.d-7,
  ekin_conv_thr = 1.d-5,
  prefix = '442'
  pseudo_dir = './'
/
&SYSTEM
  ibrav = 0,
  nbnd=,
  nat  =,
  ntyp =,
  ecutwfc = 70,
  ecutrho = 560,
  nr1b= 30, nr2b = 30, nr3b = 30,
  nspin=1,
/
&ELECTRONS
  emass = 300.d0,
  emass_cutoff = 2.5d0,
  orthogonalization = 'ortho',
  ortho_max = 100
  electron_dynamics = 'damp',
  electron_damping = 0.05
!  electron_velocities = 'zero'
  electron_temperature = 'not_controlled',
/
&IONS
  ion_dynamics = 'damp',
  ion_damping = 0.05,
!  ion_velocities = 'zero'
  ion_temperature = 'not_controlled',
/
ATOMIC_SPECIES

ATOMIC_POSITIONS (angstroms)

CELL_PARAMETERS (angstroms)
