&CONTROL
  calculation = 'vc-cp',
  restart_mode = 'reset_counters',
  ndr = 54,
  ndw = 55,
  nstep  = 2000,
  iprint = 10,
  isave  = 100,
  tstress = .TRUE.,
  tprnfor = .TRUE.,
  dt    = 8,
  prefix = '442',
  pseudo_dir = './',
  etot_conv_thr = 1.d-6,
  ekin_conv_thr = 1.d-5,
  forc_conv_thr = 1.d-4
/
&SYSTEM
  ibrav = 0,
  nbnd=1712,
  nat  =800,
  ntyp =3,
  ecutwfc = 70,
  ecutrho = 560,
  nr1b= 30, nr2b = 30, nr3b = 30,
  nspin=1,
/
&ELECTRONS
  emass = 300.d0,
  emass_cutoff = 2.5d0,
  orthogonalization = 'ortho',
  ortho_max = 100
  electron_dynamics = 'damp',
  electron_damping = 0.05
  electron_velocities = 'zero'
  electron_temperature = 'not_controlled',
/
&IONS
  ion_dynamics = 'damp',
  ion_damping = 0.05,
  ion_velocities = 'zero'
  ion_temperature = 'not_controlled',
/
&CELL
  cell_dynamics = 'damp-pr'
  cell_velocities = 'zero'
  cell_dofree = 'all'
  cell_damping = 0.01
  press = 1.0d-3
/
ATOMIC_SPECIES
 O  2.0 O.pz-n-rrkjus_psl.0.1.UPF
 Ag 2.0 Ag.pz-d-rrkjus.UPF
 Mg 2.0 Mg.pz-bhs.UPF
ATOMIC_POSITIONS (angstroms)
Ag       8.4224000000     12.6336000000     12.6336000000
Ag       8.4224000000     12.6336000000     10.5280000000
Ag       8.4224000000     12.6336000000      8.4224000000
Ag       8.4224000000     12.6336000000      6.3168000000
Ag       8.4224000000     10.5280000000     12.6336000000
Ag       8.4224000000      8.4224000000     12.6336000000
Ag       8.4224000000      8.4224000000     10.5280000000
Ag       8.4224000000     10.5280000000      8.4224000000
Ag       8.4224000000     10.5280000000     10.5280000000
Ag       8.4224000000      8.4224000000      8.4224000000
Ag       8.4224000000      8.4224000000      6.3168000000
Ag       8.4224000000     10.5280000000      6.3168000000
Ag       8.4224000000      6.3168000000     12.6336000000
Ag       8.4224000000      6.3168000000      8.4224000000
Ag       8.4224000000      6.3168000000     10.5280000000
Ag       8.4224000000      6.3168000000      6.3168000000
Ag       6.3168000000     12.6336000000     12.6336000000
Ag       6.3168000000     12.6336000000      8.4224000000
Ag       6.3168000000     12.6336000000     10.5280000000
Ag       6.3168000000     12.6336000000      6.3168000000
Ag       6.3168000000      8.4224000000     12.6336000000
Ag       6.3168000000     10.5280000000     12.6336000000
Ag       6.3168000000      8.4224000000      8.4224000000
Ag       6.3168000000     10.5280000000      8.4224000000
Ag       6.3168000000      8.4224000000     10.5280000000
Ag       6.3168000000     10.5280000000     10.5280000000
Ag       6.3168000000      8.4224000000      6.3168000000
Ag       6.3168000000     10.5280000000      6.3168000000
Ag       6.3168000000      6.3168000000     12.6336000000
Ag       6.3168000000      6.3168000000      8.4224000000
Ag       6.3168000000      6.3168000000     10.5280000000
Ag       6.3168000000      6.3168000000      6.3168000000
Mg      14.7392000000     18.9504000000     16.8448000000
Mg      14.7392000000     16.8448000000     18.9504000000
Mg      12.6336000000     18.9504000000     18.9504000000
Mg      12.6336000000     16.8448000000     16.8448000000
Mg      14.7392000000     18.9504000000     12.6336000000
Mg      14.7392000000     16.8448000000     14.7392000000
Mg      12.6336000000     18.9504000000     14.7392000000
Mg      12.6336000000     16.8448000000     12.6336000000
Mg      14.7392000000     18.9504000000      8.4224000000
Mg      14.7392000000     16.8448000000     10.5280000000
Mg      12.6336000000     18.9504000000     10.5280000000
Mg      12.6336000000     16.8448000000      8.4224000000
Mg      14.7392000000     18.9504000000      4.2112000000
Mg      14.7392000000     16.8448000000      6.3168000000
Mg      12.6336000000     18.9504000000      6.3168000000
Mg      12.6336000000     16.8448000000      4.2112000000
Mg      14.7392000000     18.9504000000      0.0000000000
Mg      14.7392000000     16.8448000000      2.1056000000
Mg      12.6336000000     18.9504000000      2.1056000000
Mg      12.6336000000     16.8448000000      0.0000000000
Mg      14.7392000000     14.7392000000     16.8448000000
Mg      14.7392000000     12.6336000000     18.9504000000
Mg      12.6336000000     14.7392000000     18.9504000000
Mg      12.6336000000     12.6336000000     16.8448000000
Mg      14.7392000000     14.7392000000     12.6336000000
Mg      14.7392000000     12.6336000000     14.7392000000
Mg      12.6336000000     14.7392000000     14.7392000000
Mg      12.6336000000     12.6336000000     12.6336000000
Mg      14.7392000000     14.7392000000      8.4224000000
Mg      14.7392000000     12.6336000000     10.5280000000
Mg      12.6336000000     14.7392000000     10.5280000000
Mg      12.6336000000     12.6336000000      8.4224000000
Mg      14.7392000000     14.7392000000      4.2112000000
Mg      14.7392000000     12.6336000000      6.3168000000
Mg      12.6336000000     14.7392000000      6.3168000000
Mg      12.6336000000     12.6336000000      4.2112000000
Mg      14.7392000000     14.7392000000      0.0000000000
Mg      14.7392000000     12.6336000000      2.1056000000
Mg      12.6336000000     14.7392000000      2.1056000000
Mg      12.6336000000     12.6336000000      0.0000000000
Mg      14.7392000000     10.5280000000     16.8448000000
Mg      14.7392000000      8.4224000000     18.9504000000
Mg      12.6336000000     10.5280000000     18.9504000000
Mg      12.6336000000      8.4224000000     16.8448000000
Mg      14.7392000000     10.5280000000     12.6336000000
Mg      14.7392000000      8.4224000000     14.7392000000
Mg      12.6336000000     10.5280000000     14.7392000000
Mg      12.6336000000      8.4224000000     12.6336000000
Mg      14.7392000000     10.5280000000      8.4224000000
Mg      14.7392000000      8.4224000000     10.5280000000
Mg      12.6336000000     10.5280000000     10.5280000000
Mg      12.6336000000      8.4224000000      8.4224000000
Mg      14.7392000000     10.5280000000      4.2112000000
Mg      14.7392000000      8.4224000000      6.3168000000
Mg      12.6336000000     10.5280000000      6.3168000000
Mg      12.6336000000      8.4224000000      4.2112000000
Mg      14.7392000000     10.5280000000      0.0000000000
Mg      14.7392000000      8.4224000000      2.1056000000
Mg      12.6336000000     10.5280000000      2.1056000000
Mg      12.6336000000      8.4224000000      0.0000000000
Mg      14.7392000000      6.3168000000     16.8448000000
Mg      14.7392000000      4.2112000000     18.9504000000
Mg      12.6336000000      6.3168000000     18.9504000000
Mg      12.6336000000      4.2112000000     16.8448000000
Mg      14.7392000000      6.3168000000     12.6336000000
Mg      14.7392000000      4.2112000000     14.7392000000
Mg      12.6336000000      6.3168000000     14.7392000000
Mg      12.6336000000      4.2112000000     12.6336000000
Mg      14.7392000000      6.3168000000      8.4224000000
Mg      14.7392000000      4.2112000000     10.5280000000
Mg      12.6336000000      6.3168000000     10.5280000000
Mg      12.6336000000      4.2112000000      8.4224000000
Mg      14.7392000000      6.3168000000      4.2112000000
Mg      14.7392000000      4.2112000000      6.3168000000
Mg      12.6336000000      6.3168000000      6.3168000000
Mg      12.6336000000      4.2112000000      4.2112000000
Mg      14.7392000000      6.3168000000      0.0000000000
Mg      14.7392000000      4.2112000000      2.1056000000
Mg      12.6336000000      6.3168000000      2.1056000000
Mg      12.6336000000      4.2112000000      0.0000000000
Mg      14.7392000000      2.1056000000     16.8448000000
Mg      14.7392000000      0.0000000000     18.9504000000
Mg      12.6336000000      2.1056000000     18.9504000000
Mg      12.6336000000      0.0000000000     16.8448000000
Mg      14.7392000000      2.1056000000     12.6336000000
Mg      14.7392000000      0.0000000000     14.7392000000
Mg      12.6336000000      2.1056000000     14.7392000000
Mg      12.6336000000      0.0000000000     12.6336000000
Mg      14.7392000000      2.1056000000      8.4224000000
Mg      14.7392000000      0.0000000000     10.5280000000
Mg      12.6336000000      2.1056000000     10.5280000000
Mg      12.6336000000      0.0000000000      8.4224000000
Mg      14.7392000000      2.1056000000      4.2112000000
Mg      14.7392000000      0.0000000000      6.3168000000
Mg      12.6336000000      2.1056000000      6.3168000000
Mg      12.6336000000      0.0000000000      4.2112000000
Mg      14.7392000000      2.1056000000      0.0000000000
Mg      14.7392000000      0.0000000000      2.1056000000
Mg      12.6336000000      2.1056000000      2.1056000000
Mg      12.6336000000      0.0000000000      0.0000000000
Mg      10.5280000000     18.9504000000     16.8448000000
Mg      10.5280000000     16.8448000000     18.9504000000
Mg       8.4224000000     18.9504000000     18.9504000000
Mg       8.4224000000     16.8448000000     16.8448000000
Mg      10.5280000000     18.9504000000     12.6336000000
Mg      10.5280000000     16.8448000000     14.7392000000
Mg       8.4224000000     18.9504000000     14.7392000000
Mg       8.4224000000     16.8448000000     12.6336000000
Mg      10.5280000000     18.9504000000      8.4224000000
Mg      10.5280000000     16.8448000000     10.5280000000
Mg       8.4224000000     18.9504000000     10.5280000000
Mg       8.4224000000     16.8448000000      8.4224000000
Mg      10.5280000000     18.9504000000      4.2112000000
Mg      10.5280000000     16.8448000000      6.3168000000
Mg       8.4224000000     18.9504000000      6.3168000000
Mg       8.4224000000     16.8448000000      4.2112000000
Mg      10.5280000000     18.9504000000      0.0000000000
Mg      10.5280000000     16.8448000000      2.1056000000
Mg       8.4224000000     18.9504000000      2.1056000000
Mg       8.4224000000     16.8448000000      0.0000000000
Mg      10.5280000000     14.7392000000     16.8448000000
Mg      10.5280000000     12.6336000000     18.9504000000
Mg       8.4224000000     14.7392000000     18.9504000000
Mg       8.4224000000     12.6336000000     16.8448000000
Mg      10.5280000000     14.7392000000     12.6336000000
Mg      10.5280000000     12.6336000000     14.7392000000
Mg       8.4224000000     14.7392000000     14.7392000000
Mg      10.5280000000     14.7392000000      8.4224000000
Mg      10.5280000000     12.6336000000     10.5280000000
Mg       8.4224000000     14.7392000000     10.5280000000
Mg      10.5280000000     14.7392000000      4.2112000000
Mg      10.5280000000     12.6336000000      6.3168000000
Mg       8.4224000000     14.7392000000      6.3168000000
Mg       8.4224000000     12.6336000000      4.2112000000
Mg      10.5280000000     14.7392000000      0.0000000000
Mg      10.5280000000     12.6336000000      2.1056000000
Mg       8.4224000000     14.7392000000      2.1056000000
Mg       8.4224000000     12.6336000000      0.0000000000
Mg      10.5280000000     10.5280000000     16.8448000000
Mg      10.5280000000      8.4224000000     18.9504000000
Mg       8.4224000000     10.5280000000     18.9504000000
Mg       8.4224000000      8.4224000000     16.8448000000
Mg      10.5280000000     10.5280000000     12.6336000000
Mg      10.5280000000      8.4224000000     14.7392000000
Mg       8.4224000000     10.5280000000     14.7392000000
Mg      10.5280000000     10.5280000000      8.4224000000
Mg      10.5280000000      8.4224000000     10.5280000000
Mg      10.5280000000     10.5280000000      4.2112000000
Mg      10.5280000000      8.4224000000      6.3168000000
Mg       8.4224000000      8.4224000000      4.2112000000
Mg      10.5280000000     10.5280000000      0.0000000000
Mg      10.5280000000      8.4224000000      2.1056000000
Mg       8.4224000000     10.5280000000      2.1056000000
Mg       8.4224000000      8.4224000000      0.0000000000
Mg      10.5280000000      6.3168000000     16.8448000000
Mg      10.5280000000      4.2112000000     18.9504000000
Mg       8.4224000000      6.3168000000     18.9504000000
Mg       8.4224000000      4.2112000000     16.8448000000
Mg      10.5280000000      6.3168000000     12.6336000000
Mg      10.5280000000      4.2112000000     14.7392000000
Mg       8.4224000000      6.3168000000     14.7392000000
Mg       8.4224000000      4.2112000000     12.6336000000
Mg      10.5280000000      6.3168000000      8.4224000000
Mg      10.5280000000      4.2112000000     10.5280000000
Mg       8.4224000000      4.2112000000      8.4224000000
Mg      10.5280000000      6.3168000000      4.2112000000
Mg      10.5280000000      4.2112000000      6.3168000000
Mg       8.4224000000      4.2112000000      4.2112000000
Mg      10.5280000000      6.3168000000      0.0000000000
Mg      10.5280000000      4.2112000000      2.1056000000
Mg       8.4224000000      6.3168000000      2.1056000000
Mg       8.4224000000      4.2112000000      0.0000000000
Mg      10.5280000000      2.1056000000     16.8448000000
Mg      10.5280000000      0.0000000000     18.9504000000
Mg       8.4224000000      2.1056000000     18.9504000000
Mg       8.4224000000      0.0000000000     16.8448000000
Mg      10.5280000000      2.1056000000     12.6336000000
Mg      10.5280000000      0.0000000000     14.7392000000
Mg       8.4224000000      2.1056000000     14.7392000000
Mg       8.4224000000      0.0000000000     12.6336000000
Mg      10.5280000000      2.1056000000      8.4224000000
Mg      10.5280000000      0.0000000000     10.5280000000
Mg       8.4224000000      2.1056000000     10.5280000000
Mg       8.4224000000      0.0000000000      8.4224000000
Mg      10.5280000000      2.1056000000      4.2112000000
Mg      10.5280000000      0.0000000000      6.3168000000
Mg       8.4224000000      2.1056000000      6.3168000000
Mg       8.4224000000      0.0000000000      4.2112000000
Mg      10.5280000000      2.1056000000      0.0000000000
Mg      10.5280000000      0.0000000000      2.1056000000
Mg       8.4224000000      2.1056000000      2.1056000000
Mg       8.4224000000      0.0000000000      0.0000000000
Mg       6.3168000000     18.9504000000     16.8448000000
Mg       6.3168000000     16.8448000000     18.9504000000
Mg       4.2112000000     18.9504000000     18.9504000000
Mg       4.2112000000     16.8448000000     16.8448000000
Mg       6.3168000000     18.9504000000     12.6336000000
Mg       6.3168000000     16.8448000000     14.7392000000
Mg       4.2112000000     18.9504000000     14.7392000000
Mg       4.2112000000     16.8448000000     12.6336000000
Mg       6.3168000000     18.9504000000      8.4224000000
Mg       6.3168000000     16.8448000000     10.5280000000
Mg       4.2112000000     18.9504000000     10.5280000000
Mg       4.2112000000     16.8448000000      8.4224000000
Mg       6.3168000000     18.9504000000      4.2112000000
Mg       6.3168000000     16.8448000000      6.3168000000
Mg       4.2112000000     18.9504000000      6.3168000000
Mg       4.2112000000     16.8448000000      4.2112000000
Mg       6.3168000000     18.9504000000      0.0000000000
Mg       6.3168000000     16.8448000000      2.1056000000
Mg       4.2112000000     18.9504000000      2.1056000000
Mg       4.2112000000     16.8448000000      0.0000000000
Mg       6.3168000000     14.7392000000     16.8448000000
Mg       6.3168000000     12.6336000000     18.9504000000
Mg       4.2112000000     14.7392000000     18.9504000000
Mg       4.2112000000     12.6336000000     16.8448000000
Mg       6.3168000000     14.7392000000     12.6336000000
Mg       6.3168000000     12.6336000000     14.7392000000
Mg       4.2112000000     14.7392000000     14.7392000000
Mg       4.2112000000     12.6336000000     12.6336000000
Mg       6.3168000000     14.7392000000      8.4224000000
Mg       4.2112000000     14.7392000000     10.5280000000
Mg       4.2112000000     12.6336000000      8.4224000000
Mg       6.3168000000     14.7392000000      4.2112000000
Mg       4.2112000000     14.7392000000      6.3168000000
Mg       4.2112000000     12.6336000000      4.2112000000
Mg       6.3168000000     14.7392000000      0.0000000000
Mg       6.3168000000     12.6336000000      2.1056000000
Mg       4.2112000000     14.7392000000      2.1056000000
Mg       4.2112000000     12.6336000000      0.0000000000
Mg       6.3168000000     10.5280000000     16.8448000000
Mg       6.3168000000      8.4224000000     18.9504000000
Mg       4.2112000000     10.5280000000     18.9504000000
Mg       4.2112000000      8.4224000000     16.8448000000
Mg       6.3168000000      8.4224000000     14.7392000000
Mg       4.2112000000     10.5280000000     14.7392000000
Mg       4.2112000000      8.4224000000     12.6336000000
Mg       4.2112000000     10.5280000000     10.5280000000
Mg       4.2112000000      8.4224000000      8.4224000000
Mg       6.3168000000     10.5280000000      4.2112000000
Mg       4.2112000000     10.5280000000      6.3168000000
Mg       4.2112000000      8.4224000000      4.2112000000
Mg       6.3168000000     10.5280000000      0.0000000000
Mg       6.3168000000      8.4224000000      2.1056000000
Mg       4.2112000000     10.5280000000      2.1056000000
Mg       4.2112000000      8.4224000000      0.0000000000
Mg       6.3168000000      6.3168000000     16.8448000000
Mg       6.3168000000      4.2112000000     18.9504000000
Mg       4.2112000000      6.3168000000     18.9504000000
Mg       4.2112000000      4.2112000000     16.8448000000
Mg       6.3168000000      4.2112000000     14.7392000000
Mg       4.2112000000      6.3168000000     14.7392000000
Mg       4.2112000000      4.2112000000     12.6336000000
Mg       6.3168000000      4.2112000000     10.5280000000
Mg       4.2112000000      6.3168000000     10.5280000000
Mg       4.2112000000      4.2112000000      8.4224000000
Mg       6.3168000000      6.3168000000      4.2112000000
Mg       6.3168000000      4.2112000000      6.3168000000
Mg       4.2112000000      6.3168000000      6.3168000000
Mg       4.2112000000      4.2112000000      4.2112000000
Mg       6.3168000000      6.3168000000      0.0000000000
Mg       6.3168000000      4.2112000000      2.1056000000
Mg       4.2112000000      6.3168000000      2.1056000000
Mg       4.2112000000      4.2112000000      0.0000000000
Mg       6.3168000000      2.1056000000     16.8448000000
Mg       6.3168000000      0.0000000000     18.9504000000
Mg       4.2112000000      2.1056000000     18.9504000000
Mg       4.2112000000      0.0000000000     16.8448000000
Mg       6.3168000000      2.1056000000     12.6336000000
Mg       6.3168000000      0.0000000000     14.7392000000
Mg       4.2112000000      2.1056000000     14.7392000000
Mg       4.2112000000      0.0000000000     12.6336000000
Mg       6.3168000000      2.1056000000      8.4224000000
Mg       6.3168000000      0.0000000000     10.5280000000
Mg       4.2112000000      2.1056000000     10.5280000000
Mg       4.2112000000      0.0000000000      8.4224000000
Mg       6.3168000000      2.1056000000      4.2112000000
Mg       6.3168000000      0.0000000000      6.3168000000
Mg       4.2112000000      2.1056000000      6.3168000000
Mg       4.2112000000      0.0000000000      4.2112000000
Mg       6.3168000000      2.1056000000      0.0000000000
Mg       6.3168000000      0.0000000000      2.1056000000
Mg       4.2112000000      2.1056000000      2.1056000000
Mg       4.2112000000      0.0000000000      0.0000000000
Mg       2.1056000000     18.9504000000     16.8448000000
Mg       2.1056000000     16.8448000000     18.9504000000
Mg       0.0000000000     18.9504000000     18.9504000000
Mg       0.0000000000     16.8448000000     16.8448000000
Mg       2.1056000000     18.9504000000     12.6336000000
Mg       2.1056000000     16.8448000000     14.7392000000
Mg       0.0000000000     18.9504000000     14.7392000000
Mg       0.0000000000     16.8448000000     12.6336000000
Mg       2.1056000000     18.9504000000      8.4224000000
Mg       2.1056000000     16.8448000000     10.5280000000
Mg       0.0000000000     18.9504000000     10.5280000000
Mg       0.0000000000     16.8448000000      8.4224000000
Mg       2.1056000000     18.9504000000      4.2112000000
Mg       2.1056000000     16.8448000000      6.3168000000
Mg       0.0000000000     18.9504000000      6.3168000000
Mg       0.0000000000     16.8448000000      4.2112000000
Mg       2.1056000000     18.9504000000      0.0000000000
Mg       2.1056000000     16.8448000000      2.1056000000
Mg       0.0000000000     18.9504000000      2.1056000000
Mg       0.0000000000     16.8448000000      0.0000000000
Mg       2.1056000000     14.7392000000     16.8448000000
Mg       2.1056000000     12.6336000000     18.9504000000
Mg       0.0000000000     14.7392000000     18.9504000000
Mg       0.0000000000     12.6336000000     16.8448000000
Mg       2.1056000000     14.7392000000     12.6336000000
Mg       2.1056000000     12.6336000000     14.7392000000
Mg       0.0000000000     14.7392000000     14.7392000000
Mg       0.0000000000     12.6336000000     12.6336000000
Mg       2.1056000000     14.7392000000      8.4224000000
Mg       2.1056000000     12.6336000000     10.5280000000
Mg       0.0000000000     14.7392000000     10.5280000000
Mg       0.0000000000     12.6336000000      8.4224000000
Mg       2.1056000000     14.7392000000      4.2112000000
Mg       2.1056000000     12.6336000000      6.3168000000
Mg       0.0000000000     14.7392000000      6.3168000000
Mg       0.0000000000     12.6336000000      4.2112000000
Mg       2.1056000000     14.7392000000      0.0000000000
Mg       2.1056000000     12.6336000000      2.1056000000
Mg       0.0000000000     14.7392000000      2.1056000000
Mg       0.0000000000     12.6336000000      0.0000000000
Mg       2.1056000000     10.5280000000     16.8448000000
Mg       2.1056000000      8.4224000000     18.9504000000
Mg       0.0000000000     10.5280000000     18.9504000000
Mg       0.0000000000      8.4224000000     16.8448000000
Mg       2.1056000000     10.5280000000     12.6336000000
Mg       2.1056000000      8.4224000000     14.7392000000
Mg       0.0000000000     10.5280000000     14.7392000000
Mg       0.0000000000      8.4224000000     12.6336000000
Mg       2.1056000000     10.5280000000      8.4224000000
Mg       2.1056000000      8.4224000000     10.5280000000
Mg       0.0000000000     10.5280000000     10.5280000000
Mg       0.0000000000      8.4224000000      8.4224000000
Mg       2.1056000000     10.5280000000      4.2112000000
Mg       2.1056000000      8.4224000000      6.3168000000
Mg       0.0000000000     10.5280000000      6.3168000000
Mg       0.0000000000      8.4224000000      4.2112000000
Mg       2.1056000000     10.5280000000      0.0000000000
Mg       2.1056000000      8.4224000000      2.1056000000
Mg       0.0000000000     10.5280000000      2.1056000000
Mg       0.0000000000      8.4224000000      0.0000000000
Mg       2.1056000000      6.3168000000     16.8448000000
Mg       2.1056000000      4.2112000000     18.9504000000
Mg       0.0000000000      6.3168000000     18.9504000000
Mg       0.0000000000      4.2112000000     16.8448000000
Mg       2.1056000000      6.3168000000     12.6336000000
Mg       2.1056000000      4.2112000000     14.7392000000
Mg       0.0000000000      6.3168000000     14.7392000000
Mg       0.0000000000      4.2112000000     12.6336000000
Mg       2.1056000000      6.3168000000      8.4224000000
Mg       2.1056000000      4.2112000000     10.5280000000
Mg       0.0000000000      6.3168000000     10.5280000000
Mg       0.0000000000      4.2112000000      8.4224000000
Mg       2.1056000000      6.3168000000      4.2112000000
Mg       2.1056000000      4.2112000000      6.3168000000
Mg       0.0000000000      6.3168000000      6.3168000000
Mg       0.0000000000      4.2112000000      4.2112000000
Mg       2.1056000000      6.3168000000      0.0000000000
Mg       2.1056000000      4.2112000000      2.1056000000
Mg       0.0000000000      6.3168000000      2.1056000000
Mg       0.0000000000      4.2112000000      0.0000000000
Mg       2.1056000000      2.1056000000     16.8448000000
Mg       2.1056000000      0.0000000000     18.9504000000
Mg       0.0000000000      2.1056000000     18.9504000000
Mg       0.0000000000      0.0000000000     16.8448000000
Mg       2.1056000000      2.1056000000     12.6336000000
Mg       2.1056000000      0.0000000000     14.7392000000
Mg       0.0000000000      2.1056000000     14.7392000000
Mg       0.0000000000      0.0000000000     12.6336000000
Mg       2.1056000000      2.1056000000      8.4224000000
Mg       2.1056000000      0.0000000000     10.5280000000
Mg       0.0000000000      2.1056000000     10.5280000000
Mg       0.0000000000      0.0000000000      8.4224000000
Mg       2.1056000000      2.1056000000      4.2112000000
Mg       2.1056000000      0.0000000000      6.3168000000
Mg       0.0000000000      2.1056000000      6.3168000000
Mg       0.0000000000      0.0000000000      4.2112000000
Mg       2.1056000000      2.1056000000      0.0000000000
Mg       2.1056000000      0.0000000000      2.1056000000
Mg       0.0000000000      2.1056000000      2.1056000000
Mg       0.0000000000      0.0000000000      0.0000000000
O       12.6336000000     16.8448000000     18.9504000000
O       12.6336000000     18.9504000000     16.8448000000
O       14.7392000000     16.8448000000     16.8448000000
O       14.7392000000     18.9504000000     18.9504000000
O       12.6336000000     16.8448000000     14.7392000000
O       12.6336000000     18.9504000000     12.6336000000
O       14.7392000000     16.8448000000     12.6336000000
O       14.7392000000     18.9504000000     14.7392000000
O       12.6336000000     16.8448000000     10.5280000000
O       12.6336000000     18.9504000000      8.4224000000
O       14.7392000000     16.8448000000      8.4224000000
O       14.7392000000     18.9504000000     10.5280000000
O       12.6336000000     16.8448000000      6.3168000000
O       12.6336000000     18.9504000000      4.2112000000
O       14.7392000000     16.8448000000      4.2112000000
O       14.7392000000     18.9504000000      6.3168000000
O       12.6336000000     16.8448000000      2.1056000000
O       12.6336000000     18.9504000000      0.0000000000
O       14.7392000000     16.8448000000      0.0000000000
O       14.7392000000     18.9504000000      2.1056000000
O       12.6336000000     12.6336000000     18.9504000000
O       12.6336000000     14.7392000000     16.8448000000
O       14.7392000000     12.6336000000     16.8448000000
O       14.7392000000     14.7392000000     18.9504000000
O       12.6336000000     12.6336000000     14.7392000000
O       12.6336000000     14.7392000000     12.6336000000
O       14.7392000000     12.6336000000     12.6336000000
O       14.7392000000     14.7392000000     14.7392000000
O       12.6336000000     12.6336000000     10.5280000000
O       12.6336000000     14.7392000000      8.4224000000
O       14.7392000000     12.6336000000      8.4224000000
O       14.7392000000     14.7392000000     10.5280000000
O       12.6336000000     12.6336000000      6.3168000000
O       12.6336000000     14.7392000000      4.2112000000
O       14.7392000000     12.6336000000      4.2112000000
O       14.7392000000     14.7392000000      6.3168000000
O       12.6336000000     12.6336000000      2.1056000000
O       12.6336000000     14.7392000000      0.0000000000
O       14.7392000000     12.6336000000      0.0000000000
O       14.7392000000     14.7392000000      2.1056000000
O       12.6336000000      8.4224000000     18.9504000000
O       12.6336000000     10.5280000000     16.8448000000
O       14.7392000000      8.4224000000     16.8448000000
O       14.7392000000     10.5280000000     18.9504000000
O       12.6336000000      8.4224000000     14.7392000000
O       12.6336000000     10.5280000000     12.6336000000
O       14.7392000000      8.4224000000     12.6336000000
O       14.7392000000     10.5280000000     14.7392000000
O       12.6336000000      8.4224000000     10.5280000000
O       12.6336000000     10.5280000000      8.4224000000
O       14.7392000000      8.4224000000      8.4224000000
O       14.7392000000     10.5280000000     10.5280000000
O       12.6336000000      8.4224000000      6.3168000000
O       12.6336000000     10.5280000000      4.2112000000
O       14.7392000000      8.4224000000      4.2112000000
O       14.7392000000     10.5280000000      6.3168000000
O       12.6336000000      8.4224000000      2.1056000000
O       12.6336000000     10.5280000000      0.0000000000
O       14.7392000000      8.4224000000      0.0000000000
O       14.7392000000     10.5280000000      2.1056000000
O       12.6336000000      4.2112000000     18.9504000000
O       12.6336000000      6.3168000000     16.8448000000
O       14.7392000000      4.2112000000     16.8448000000
O       14.7392000000      6.3168000000     18.9504000000
O       12.6336000000      4.2112000000     14.7392000000
O       12.6336000000      6.3168000000     12.6336000000
O       14.7392000000      4.2112000000     12.6336000000
O       14.7392000000      6.3168000000     14.7392000000
O       12.6336000000      4.2112000000     10.5280000000
O       12.6336000000      6.3168000000      8.4224000000
O       14.7392000000      4.2112000000      8.4224000000
O       14.7392000000      6.3168000000     10.5280000000
O       12.6336000000      4.2112000000      6.3168000000
O       12.6336000000      6.3168000000      4.2112000000
O       14.7392000000      4.2112000000      4.2112000000
O       14.7392000000      6.3168000000      6.3168000000
O       12.6336000000      4.2112000000      2.1056000000
O       12.6336000000      6.3168000000      0.0000000000
O       14.7392000000      4.2112000000      0.0000000000
O       14.7392000000      6.3168000000      2.1056000000
O       12.6336000000      0.0000000000     18.9504000000
O       12.6336000000      2.1056000000     16.8448000000
O       14.7392000000      0.0000000000     16.8448000000